;; ===================== PROJECTED CANON (QE) =====================
;; Each clause below is entailed by Proj = ∃W.F over the canonical vocabulary.
;; Units appear first for clarity; OR-clauses (SAT-filtered) follow.
;; ==================================================================

;; Unit Bool constraints (entailed)
(assert (not patient_has_finding_of_allergy_to_paracetamol_now))
(assert (not patient_is_exposed_to_immunosuppressant_now))
(assert (not patient_has_diagnosis_of_chronic_liver_disease_inthehistory))
